81 81
15 12
2 27
11 29
7 21
6 53
33 67
35 60
25 40
24 2
22 7
29 69
17 41
9 77
13 25
20 8
39 3
24 66
31 1
18 47
30 11
7 9
39 68
17 31
16 56
34 52
3 13
25 70
28 65
40 55
32 46
37 62
19 76
6 36
10 75
2 4
5 44
1 61
34 5
1 15
1 16
14 43
33 64
21 24
20 79
22 10
9 71
38 58
35 63
3 19
23 26
36 38
15 17
31 22
12 73
23 57
38 80
4 30
16 6
18 20
26 37
37 23
13 39
8 14
4 54
32 74
27 48
36 33
5 81
21 28
27 59
19 78
30 42
28 34
26 35
8 18
11 51
40 50
14 49
12 32
29 45
10 72
